Version identifier: 20.1.0.0 | 2020-11-10 | 9bedb6d68
Tried aggregator 2 times.
MIP Presolve eliminated 669 rows and 370 columns.
MIP Presolve modified 1342 coefficients.
Aggregator did 77 substitutions.
Reduced MIP has 535 rows, 460 columns, and 1680 nonzeros.
Reduced MIP has 139 binaries, 321 generals, 0 SOSs, and 0 indicators.
Presolve time = 0.01 sec. (2.76 ticks)
Found incumbent of value 635.000000 after 0.02 sec. (4.28 ticks)
Probing fixed 15 vars, tightened 113 bounds.
Probing time = 0.00 sec. (0.37 ticks)
Tried aggregator 2 times.
Detecting symmetries...
MIP Presolve eliminated 211 rows and 19 columns.
MIP Presolve modified 46 coefficients.
Aggregator did 11 substitutions.
Reduced MIP has 313 rows, 430 columns, and 1015 nonzeros.
Reduced MIP has 175 binaries, 255 generals, 0 SOSs, and 0 indicators.
Presolve time = 0.00 sec. (1.43 ticks)
Probing time = 0.00 sec. (0.08 ticks)
Clique table members: 16.
MIP emphasis: balance optimality and feasibility.
MIP search method: dynamic search.
Parallel mode: deterministic, using up to 24 threads.
Root relaxation solution time = 0.00 sec. (0.96 ticks)

        Nodes                                         Cuts/
   Node  Left     Objective  IInf  Best Integer    Best Bound    ItCnt     Gap

*     0+    0                          635.0000        0.0000           100.00%
*     0+    0                           27.0000        0.0000           100.00%
      0     0        0.0000    34       27.0000        0.0000      127  100.00%
*     0+    0                           14.0000        0.0000           100.00%
      0     0        2.0000    42       14.0000      Cuts: 71      189   85.71%
      0     0        2.0962   112       14.0000      Cuts: 46      274   85.03%
      0     0        2.4000    81       14.0000      Cuts: 46      308   82.86%
      0     0        2.6000    97       14.0000      Cuts: 56      339   81.43%
      0     0        2.6000   106       14.0000      Cuts: 27      372   81.43%
      0     0        2.6000    66       14.0000      Cuts: 46      391   81.43%
      0     0        2.6667    71       14.0000      Cuts: 34      412   80.95%
      0     0        2.6667    71       14.0000      Cuts: 33      428   80.95%
*     0+    0                           12.0000        2.6667            77.78%
*     0+    0                           10.0000        2.6667            73.33%
      0     0        cutoff             10.0000       10.0000      428    0.00%
Elapsed time = 0.36 sec. (37.65 ticks, tree = 0.01 MB, solutions = 5)

Cover cuts applied:  1
Implied bound cuts applied:  15
Mixed integer rounding cuts applied:  7
Zero-half cuts applied:  47
Lift and project cuts applied:  6
Gomory fractional cuts applied:  6

Root node processing (before b&c):
  Real time             =    0.36 sec. (37.71 ticks)
Parallel b&c, 24 threads:
  Real time             =    0.00 sec. (0.00 ticks)
  Sync time (average)   =    0.00 sec.
  Wait time (average)   =    0.00 sec.
                          ------------
Total (root+branch&cut) =    0.36 sec. (37.71 ticks)

Solution status = Optimal
Solution LB = 10
Solution UB = 10
Runtime = 0.369902 seconds
	Command being timed: "/home/min/git_repos/CS598MEBProject/CNT-ILP/build/cnt -s 2 ./output/k6_n15/simC_c1_k6_n15_u3_s1_del04.input-right.cnp"
	User time (seconds): 5.77
	System time (seconds): 0.03
	Percent of CPU this job got: 1514%
	Elapsed (wall clock) time (h:mm:ss or m:ss): 0:00.38
	Average shared text size (kbytes): 0
	Average unshared data size (kbytes): 0
	Average stack size (kbytes): 0
	Average total size (kbytes): 0
	Maximum resident set size (kbytes): 48904
	Average resident set size (kbytes): 0
	Major (requiring I/O) page faults: 0
	Minor (reclaiming a frame) page faults: 9385
	Voluntary context switches: 2107
	Involuntary context switches: 955
	Swaps: 0
	File system inputs: 0
	File system outputs: 16
	Socket messages sent: 0
	Socket messages received: 0
	Signals delivered: 0
	Page size (bytes): 4096
	Exit status: 0
